&CONTROL
    calculation = 'nscf'
    prefix = 'wte2'
    pseudo_dir = './'
    outdir = './tmp'
    tstress = .true.
    tprnfor = .true.
/
&SYSTEM
    ibrav = 0
    nat = 6
    ntyp = 2
    ecutwfc = 60
    ecutrho = 720
    lspinorb = .true.
    noncolin = .true.
    occupations = 'smearing'
    smearing = 'mv'
    degauss = 0.001
    nbnd = 70
    nosym = .true.
    noinv = .true.
/
&ELECTRONS
    startingwfc = 'atomic'
    startingpot = 'file'
    mixing_beta = 0.05
    mixing_ndim = 8
    mixing_mode = 'local-TF'
    conv_thr = 1.0d-5
    diagonalization = 'david'
    diago_david_ndim = 2
    electron_maxstep = 100
/
ATOMIC_SPECIES
    W  183.84 W.rel-pbe-spn-kjpaw_psl.1.0.0.UPF
    Te 127.60 Te.rel-pbe-n-kjpaw_psl.1.0.0.UPF
CELL_PARAMETERS (bohr)
6.602500000000000E+000  0.000000000000000E+000  0.000000000000000E+000
0.000000000000000E+000  1.196000000000000E+001  0.000000000000000E+000
0.000000000000000E+000  0.000000000000000E+000  3.779452249251541E+001
ATOMIC_POSITIONS (bohr)
W 3.301250000000000E+000  1.150000000000000E+001  1.889726124625770E+001
W 0.000000000000000E+000  7.200000000000000E+000  1.889726124625770E+001
Te 0.000000000000000E+000  2.500000000000000E+000  1.720860198129212E+001
Te 3.301250000000000E+000  8.500000000000000E+000  1.655589057784637E+001
Te 0.000000000000000E+000  1.050000000000000E+001  2.103643121933408E+001
Te 3.301250000000000E+000  4.500000000000000E+000  2.038371981588833E+001
K_POINTS crystal
72
0.00000000  0.00000000  0.00000000  0.013889
0.00000000  0.16666667  0.00000000  0.013889
0.00000000  0.33333333  0.00000000  0.013889
0.00000000  0.50000000  0.00000000  0.013889
0.00000000  0.66666667  0.00000000  0.013889
0.00000000  0.83333333  0.00000000  0.013889
0.08333333  0.00000000  0.00000000  0.013889
0.08333333  0.16666667  0.00000000  0.013889
0.08333333  0.33333333  0.00000000  0.013889
0.08333333  0.50000000  0.00000000  0.013889
0.08333333  0.66666667  0.00000000  0.013889
0.08333333  0.83333333  0.00000000  0.013889
0.16666667  0.00000000  0.00000000  0.013889
0.16666667  0.16666667  0.00000000  0.013889
0.16666667  0.33333333  0.00000000  0.013889
0.16666667  0.50000000  0.00000000  0.013889
0.16666667  0.66666667  0.00000000  0.013889
0.16666667  0.83333333  0.00000000  0.013889
0.25000000  0.00000000  0.00000000  0.013889
0.25000000  0.16666667  0.00000000  0.013889
0.25000000  0.33333333  0.00000000  0.013889
0.25000000  0.50000000  0.00000000  0.013889
0.25000000  0.66666667  0.00000000  0.013889
0.25000000  0.83333333  0.00000000  0.013889
0.33333333  0.00000000  0.00000000  0.013889
0.33333333  0.16666667  0.00000000  0.013889
0.33333333  0.33333333  0.00000000  0.013889
0.33333333  0.50000000  0.00000000  0.013889
0.33333333  0.66666667  0.00000000  0.013889
0.33333333  0.83333333  0.00000000  0.013889
0.41666667  0.00000000  0.00000000  0.013889
0.41666667  0.16666667  0.00000000  0.013889
0.41666667  0.33333333  0.00000000  0.013889
0.41666667  0.50000000  0.00000000  0.013889
0.41666667  0.66666667  0.00000000  0.013889
0.41666667  0.83333333  0.00000000  0.013889
0.50000000  0.00000000  0.00000000  0.013889
0.50000000  0.16666667  0.00000000  0.013889
0.50000000  0.33333333  0.00000000  0.013889
0.50000000  0.50000000  0.00000000  0.013889
0.50000000  0.66666667  0.00000000  0.013889
0.50000000  0.83333333  0.00000000  0.013889
0.58333333  0.00000000  0.00000000  0.013889
0.58333333  0.16666667  0.00000000  0.013889
0.58333333  0.33333333  0.00000000  0.013889
0.58333333  0.50000000  0.00000000  0.013889
0.58333333  0.66666667  0.00000000  0.013889
0.58333333  0.83333333  0.00000000  0.013889
0.66666667  0.00000000  0.00000000  0.013889
0.66666667  0.16666667  0.00000000  0.013889
0.66666667  0.33333333  0.00000000  0.013889
0.66666667  0.50000000  0.00000000  0.013889
0.66666667  0.66666667  0.00000000  0.013889
0.66666667  0.83333333  0.00000000  0.013889
0.75000000  0.00000000  0.00000000  0.013889
0.75000000  0.16666667  0.00000000  0.013889
0.75000000  0.33333333  0.00000000  0.013889
0.75000000  0.50000000  0.00000000  0.013889
0.75000000  0.66666667  0.00000000  0.013889
0.75000000  0.83333333  0.00000000  0.013889
0.83333333  0.00000000  0.00000000  0.013889
0.83333333  0.16666667  0.00000000  0.013889
0.83333333  0.33333333  0.00000000  0.013889
0.83333333  0.50000000  0.00000000  0.013889
0.83333333  0.66666667  0.00000000  0.013889
0.83333333  0.83333333  0.00000000  0.013889
0.91666667  0.00000000  0.00000000  0.013889
0.91666667  0.16666667  0.00000000  0.013889
0.91666667  0.33333333  0.00000000  0.013889
0.91666667  0.50000000  0.00000000  0.013889
0.91666667  0.66666667  0.00000000  0.013889
0.91666667  0.83333333  0.00000000  0.013889