&inputpp
   outdir = './tmp'
   prefix = 'wte2'
   seedname = 'wte2'
   spin_component = 'none'
   write_mmn = .true.
   write_amn = .true.
   write_unk = .false.
/
