num_bands = 70
num_wann = 44

iprint = 2
spinors = .true.

dis_win_min = -15.0
dis_win_max = 40.0
dis_froz_min = -10.0
dis_froz_max = 2.0

num_iter = 100
dis_num_iter = 200

mp_grid = 12 6 1
search_shells = 36

begin projections
W:d
Te:p
end projections

begin unit_cell_cart
bohr
6.602500 0.000000 0.000000
0.000000 11.960000 0.000000
0.000000 0.000000 37.794522
end unit_cell_cart

begin atoms_frac
W 0.500000 0.961538 0.500000
W 0.000000 0.602007 0.500000
Te 0.000000 0.209029 0.455320
Te 0.500000 0.710702 0.438050
Te 0.000000 0.877926 0.556600
Te 0.500000 0.376254 0.539330
end atoms_frac

begin kpoints
0.00000000  0.00000000  0.00000000
0.00000000  0.16666667  0.00000000
0.00000000  0.33333333  0.00000000
0.00000000  0.50000000  0.00000000
0.00000000  0.66666667  0.00000000
0.00000000  0.83333333  0.00000000
0.08333333  0.00000000  0.00000000
0.08333333  0.16666667  0.00000000
0.08333333  0.33333333  0.00000000
0.08333333  0.50000000  0.00000000
0.08333333  0.66666667  0.00000000
0.08333333  0.83333333  0.00000000
0.16666667  0.00000000  0.00000000
0.16666667  0.16666667  0.00000000
0.16666667  0.33333333  0.00000000
0.16666667  0.50000000  0.00000000
0.16666667  0.66666667  0.00000000
0.16666667  0.83333333  0.00000000
0.25000000  0.00000000  0.00000000
0.25000000  0.16666667  0.00000000
0.25000000  0.33333333  0.00000000
0.25000000  0.50000000  0.00000000
0.25000000  0.66666667  0.00000000
0.25000000  0.83333333  0.00000000
0.33333333  0.00000000  0.00000000
0.33333333  0.16666667  0.00000000
0.33333333  0.33333333  0.00000000
0.33333333  0.50000000  0.00000000
0.33333333  0.66666667  0.00000000
0.33333333  0.83333333  0.00000000
0.41666667  0.00000000  0.00000000
0.41666667  0.16666667  0.00000000
0.41666667  0.33333333  0.00000000
0.41666667  0.50000000  0.00000000
0.41666667  0.66666667  0.00000000
0.41666667  0.83333333  0.00000000
0.50000000  0.00000000  0.00000000
0.50000000  0.16666667  0.00000000
0.50000000  0.33333333  0.00000000
0.50000000  0.50000000  0.00000000
0.50000000  0.66666667  0.00000000
0.50000000  0.83333333  0.00000000
0.58333333  0.00000000  0.00000000
0.58333333  0.16666667  0.00000000
0.58333333  0.33333333  0.00000000
0.58333333  0.50000000  0.00000000
0.58333333  0.66666667  0.00000000
0.58333333  0.83333333  0.00000000
0.66666667  0.00000000  0.00000000
0.66666667  0.16666667  0.00000000
0.66666667  0.33333333  0.00000000
0.66666667  0.50000000  0.00000000
0.66666667  0.66666667  0.00000000
0.66666667  0.83333333  0.00000000
0.75000000  0.00000000  0.00000000
0.75000000  0.16666667  0.00000000
0.75000000  0.33333333  0.00000000
0.75000000  0.50000000  0.00000000
0.75000000  0.66666667  0.00000000
0.75000000  0.83333333  0.00000000
0.83333333  0.00000000  0.00000000
0.83333333  0.16666667  0.00000000
0.83333333  0.33333333  0.00000000
0.83333333  0.50000000  0.00000000
0.83333333  0.66666667  0.00000000
0.83333333  0.83333333  0.00000000
0.91666667  0.00000000  0.00000000
0.91666667  0.16666667  0.00000000
0.91666667  0.33333333  0.00000000
0.91666667  0.50000000  0.00000000
0.91666667  0.66666667  0.00000000
0.91666667  0.83333333  0.00000000
end kpoints

! --- Correct Z2 / Wilson Loop Block (Disabled for Bands) ---
! berry = true
! berry_task = wilson_loop
! berry_kmesh = 50 50 1
! fermi_energy = -2.8364


! --- Band Structure Settings (Enabled) ---
! bands_plot = true
! bands_num_points = 100
! bands_plot_format = gnuplot

begin kpoint_path
G 0.0 0.0 0.0  X 0.5 0.0 0.0
X 0.5 0.0 0.0  M 0.5 0.5 0.0
M 0.5 0.5 0.0  G 0.0 0.0 0.0
G 0.0 0.0 0.0  Y 0.0 0.5 0.0
end kpoint_path
! --- Hamiltonian Plotting ---
write_hr = true
